p cnf 149 487
c t mc
-4 2 0
-4 3 0
-2 -3 4 0
5 1 0
5 -4 0
-1 4 -5 0
-7 6 0
-7 -4 0
-6 4 7 0
9 -7 0
9 -8 0
7 8 -9 0
12 10 0
12 -11 0
-10 11 -12 0
-14 13 0
-14 11 0
-13 -11 14 0
16 14 0
16 -15 0
-14 15 -16 0
-17 12 0
-17 -16 0
-12 16 17 0
19 8 0
19 -18 0
-8 18 -19 0
-20 -19 0
-20 -3 0
19 3 20 0
7 -20 -21 0
-7 20 -21 0
7 20 21 0
-7 -20 21 0
24 22 0
24 23 0
-22 -23 -24 0
-25 -24 0
-25 11 0
24 -11 25 0
-21 -25 -26 0
21 25 -26 0
-21 25 26 0
21 -25 26 0
27 -20 0
27 26 0
20 -26 -27 0
28 -17 0
28 -27 0
17 27 -28 0
-30 -29 0
-30 10 0
29 -10 30 0
-30 31 -32 0
30 -31 -32 0
-30 -31 32 0
30 31 32 0
2 -10 -33 0
-2 10 -33 0
2 10 33 0
-2 -10 33 0
34 32 0
34 -33 0
-32 33 -34 0
34 3 -35 0
-34 -3 -35 0
34 -3 35 0
-34 3 35 0
37 36 0
37 -19 0
-36 19 -37 0
-37 38 -39 0
37 -38 -39 0
-37 -38 39 0
37 38 39 0
4 -36 -40 0
-4 36 -40 0
4 36 40 0
-4 -36 40 0
41 -39 0
41 40 0
39 -40 -41 0
15 42 -43 0
-15 -42 -43 0
15 -42 43 0
-15 42 43 0
-45 -31 0
-45 -44 0
31 44 45 0
-46 -45 0
-46 -8 0
45 8 46 0
11 -8 -47 0
-11 8 -47 0
11 8 47 0
-11 -8 47 0
48 -45 0
48 47 0
45 -47 -48 0
48 -19 -49 0
-48 19 -49 0
48 19 49 0
-48 -19 49 0
50 46 0
50 49 0
-46 -49 -50 0
-43 50 -51 0
43 -50 -51 0
-43 -50 51 0
43 50 51 0
-18 -13 -52 0
18 13 -52 0
-18 13 52 0
18 -13 52 0
53 16 0
53 52 0
-16 -52 -53 0
51 53 -54 0
-51 -53 -54 0
51 -53 54 0
-51 53 54 0
-41 -54 -55 0
41 54 -55 0
-41 54 55 0
41 -54 55 0
35 55 -56 0
-35 -55 -56 0
35 -55 56 0
-35 55 56 0
57 -28 0
57 56 0
28 -56 -57 0
-58 -15 0
-58 -15 0
15 58 0
59 -58 0
59 -18 0
58 18 -59 0
60 -57 0
60 -59 0
57 59 -60 0
-9 -60 -61 0
9 60 -61 0
-9 60 61 0
9 -60 61 0
62 5 0
62 -61 0
-5 61 -62 0
-63 52 0
-63 42 0
-52 -42 63 0
16 4 -64 0
-16 -4 -64 0
16 -4 64 0
-16 4 64 0
63 64 -65 0
-63 -64 -65 0
63 -64 65 0
-63 64 65 0
-66 40 0
-66 12 0
-40 -12 66 0
48 -49 -67 0
-48 49 -67 0
48 49 67 0
-48 -49 67 0
-66 67 -68 0
66 -67 -68 0
-66 -67 68 0
66 67 68 0
-69 65 0
-69 -68 0
-65 68 69 0
31 -71 -72 0
-31 71 -72 0
31 71 72 0
-31 -71 72 0
-73 70 0
-73 72 0
-70 -72 73 0
74 -11 0
74 -4 0
11 4 -74 0
75 73 0
75 74 0
-73 -74 -75 0
-13 -39 -76 0
13 39 -76 0
-13 39 76 0
13 -39 76 0
-77 75 0
-77 -76 0
-75 76 77 0
-78 -15 0
-78 29 0
15 -29 78 0
-80 -42 0
-80 -79 0
42 79 80 0
82 80 0
82 81 0
-80 -81 -82 0
-83 78 0
-83 82 0
-78 -82 83 0
84 -18 0
84 43 0
18 -43 -84 0
85 23 0
85 34 0
-23 -34 -85 0
-86 -84 0
-86 -85 0
84 85 86 0
-87 36 0
-87 -31 0
-36 31 87 0
-87 88 -89 0
87 -88 -89 0
-87 -88 89 0
87 88 89 0
91 -90 0
91 7 0
90 -7 -91 0
92 -91 0
92 3 0
91 -3 -92 0
93 -89 0
93 92 0
89 -92 -93 0
-94 -86 0
-94 -93 0
86 93 94 0
95 90 0
95 8 0
-90 -8 -95 0
-96 -95 0
-96 45 0
95 -45 96 0
-84 -97 0
84 -97 0
-82 -51 -98 0
82 51 -98 0
-82 51 98 0
82 -51 98 0
98 -14 -99 0
-98 14 -99 0
98 14 99 0
-98 -14 99 0
-97 -99 -100 0
97 99 -100 0
-97 99 100 0
97 -99 100 0
102 101 0
102 29 0
-101 -29 -102 0
32 51 -103 0
-32 -51 -103 0
32 -51 103 0
-32 51 103 0
102 103 -104 0
-102 -103 -104 0
102 -103 104 0
-102 103 104 0
105 -100 0
105 104 0
100 -104 -105 0
-106 -96 0
-106 -105 0
96 105 106 0
-94 106 -107 0
94 -106 -107 0
-94 -106 107 0
94 106 107 0
83 -107 -108 0
-83 107 -108 0
83 107 108 0
-83 -107 108 0
77 -108 -109 0
-77 108 -109 0
77 108 109 0
-77 -108 109 0
-69 -109 -110 0
69 109 -110 0
-69 109 110 0
69 -109 110 0
111 62 0
111 -110 0
-62 110 -111 0
71 -11 -112 0
-71 11 -112 0
71 11 112 0
-71 -11 112 0
-113 37 0
-113 112 0
-37 -112 113 0
-114 -113 0
-114 -46 0
113 46 114 0
115 85 0
115 2 0
-85 -2 -115 0
-116 114 0
-116 -115 0
-114 115 116 0
-117 111 0
-117 -116 0
-111 116 117 0
-24 6 -118 0
24 -6 -118 0
-24 -6 118 0
24 6 118 0
119 31 0
119 36 0
-31 -36 -119 0
-120 31 0
-120 -119 0
-31 119 120 0
-121 47 0
-121 -120 0
-47 120 121 0
-118 121 -122 0
118 -121 -122 0
-118 -121 122 0
118 121 122 0
-123 70 0
-123 -81 0
-70 81 123 0
124 122 0
124 123 0
-122 -123 -124 0
-125 -58 0
-125 43 0
58 -43 125 0
126 125 0
126 -7 0
-125 7 -126 0
127 21 0
127 -1 0
-21 1 -127 0
-128 126 0
-128 -127 0
-126 127 128 0
80 42 -129 0
-80 -42 -129 0
80 -42 129 0
-80 42 129 0
130 129 0
130 -129 0
131 -13 0
131 -2 0
13 2 -131 0
-130 131 -132 0
130 -131 -132 0
-130 -131 132 0
130 131 132 0
3 95 -133 0
-3 -95 -133 0
3 -95 133 0
-3 95 133 0
-134 -132 0
-134 133 0
132 -133 134 0
-135 128 0
-135 -134 0
-128 134 135 0
136 -124 0
136 135 0
124 -135 -136 0
-137 -119 0
-137 33 0
119 -33 137 0
-138 -36 0
-138 -80 0
36 80 138 0
139 137 0
139 -138 0
-137 138 -139 0
-141 -140 0
-141 2 0
140 -2 141 0
84 -141 -142 0
-84 141 -142 0
84 141 142 0
-84 -141 142 0
-143 125 0
-143 25 0
-125 -25 143 0
144 142 0
144 143 0
-142 -143 -144 0
-139 144 -145 0
139 -144 -145 0
-139 -144 145 0
139 144 145 0
146 -30 0
146 112 0
30 -112 -146 0
-145 -146 -147 0
145 146 -147 0
-145 146 147 0
145 -146 147 0
-148 -136 0
-148 147 0
136 -147 148 0
-149 117 0
-149 148 0
-117 -148 149 0
-139 45 93 -6 88 -57 0
45 69 75 108 57 42 58 -81 -144 0
5 -102 -13 138 143 -79 74 70 0
-64 -42 -87 -9 31 -73 1 19 74 0
-5 148 -46 -106 -98 -107 50 48 0
69 31 141 0
-64 17 59 0
-45 125 37 -22 32 111 115 133 14 0
-50 -60 27 104 51 -67 -115 -99 0
2 14 -73 -99 -16 0
102 77 59 0
-37 -92 121 91 0
92 -66 56 0
-82 -10 -65 76 68 -122 -79 90 -147 -117 0
-106 61 -29 3 89 144 0
-117 69 17 -88 109 -14 0
-17 6 -128 78 26 -45 3 54 101 0
-19 45 -80 31 98 -38 95 -6 -67 -79 0
149 29 12 -86 -122 -140 104 -143 147 0
-65 112 133 111 0
35 -4 -79 -97 7 43 0
-80 22 -94 40 -137 71 26 -42 0
-142 -113 31 114 128 -139 0
51 -10 -81 60 -45 -108 0
17 -142 102 -30 -74 89 8 0
100 -3 72 -44 -56 114 -38 -97 -130 0
-103 -60 118 142 0
101 -49 104 -95 63 0
37 -44 -70 -7 0
-27 90 -11 149 -54 79 -9 0
-4 -127 -22 -73 144 0
-123 88 10 80 50 89 -131 98 -119 0
-58 -134 -7 -91 60 82 0
-85 114 -68 -65 -52 -123 87 -89 104 0
80 1 -41 -96 0
109 96 145 -68 -144 -127 -107 8 -12 0
73 -11 12 145 84 0
148 -83 -97 6 0
-81 -91 111 57 -28 33 138 0
128 -104 -30 -100 0
46 143 134 -149 0
62 104 8 2 -112 71 -63 137 0
17 2 -3 85 63 -72 141 -52 -70 92 0
-124 -16 70 -108 38 0
19 -122 17 44 24 98 58 0
-27 -66 1 -21 -100 0
107 -67 -100 -72 -34 116 -23 0
-58 -109 -95 73 77 35 20 0
22 -55 105 0
45 -59 -72 0
122 73 -21 -2 0
90 -62 4 -137 98 0
-18 44 -22 -116 -45 101 0
-126 -18 20 27 -23 146 -105 -92 -88 0
86 42 -9 -50 73 -124 140 0
-133 126 88 -68 -141 71 84 -36 45 98 0
-133 -22 -141 54 27 -135 58 64 12 127 0
87 -124 6 138 -75 48 107 0
-21 -39 55 -120 32 113 -147 -10 136 0
39 -130 7 -35 -117 145 20 32 -120 0
-88 80 70 104 -18 -9 -130 90 23 0
-143 80 -57 -126 -111 -136 148 90 -55 -108 0
-75 -26 -66 -2 118 -63 -84 -3 -133 108 0
63 -123 141 -77 113 0
123 132 -34 0
132 107 141 -85 -114 -102 98 -112 -2 74 0
-130 -133 -140 144 -98 46 0
-24 127 -22 59 23 9 0
119 127 -136 92 -133 35 109 0
45 -111 107 -17 0
-142 -34 -77 -70 0
-93 123 -95 -108 76 52 0
-29 -136 -75 -144 -71 72 0
35 30 -62 -57 -31 -81 0
66 76 47 124 -125 0
-74 136 -131 -121 47 -51 0
-129 34 -54 -14 -27 -112 44 67 97 0
-79 -102 105 -73 -47 -147 -134 28 0
149 0
